WARNING: for repeatability, setting FPU to use double precision
============================[ Problem Statistics ]=============================
|                                                                             |
|  Number of variables:          3008                                         |
|  Number of clauses:            9856                                         |
|  Parse time:                   0.00 s                                       |
|                                                                             |
c ============================[ Search Statistics ]==============================
c | Conflicts |          ORIGINAL         |          LEARNT          | Progress |
c |           |    Vars  Clauses Literals |    Limit  Clauses Lit/Cl |          |
c ===============================================================================
c Switched to VSIDS.
c Switched to LRB.
c Switched to VSIDS.
c Switched to LRB.
c Switched to VSIDS.
c Switched to LRB.
c Switched to VSIDS.
c Switched to LRB.
c Switched to VSIDS.
c Switched to LRB.
c Switched to VSIDS.
c Switched to LRB.
c Switched to VSIDS.
c Switched to LRB.
c Switched to VSIDS.
c Switched to LRB.
c Switched to VSIDS.
c Switched to LRB.
c Switched to VSIDS.
c Switched to LRB.
c Switched to VSIDS.
c Switched to LRB.
c Switched to VSIDS.
c Switched to LRB.
c Switched to VSIDS.
c Switched to LRB.
c Switched to VSIDS.
c Switched to LRB.
c Switched to VSIDS.
c ===============================================================================
restarts                  : 6126
conflicts                 : 5539448        (1552 /sec)
decisions                 : 6109246        (0.00 % random) (1712 /sec)
propagations              : 5059821955     (1417588 /sec)
conflict literals         : 323037986      (62.61 % deleted)

conflicts w/ DIP found    : 3278266        (59.18 % of conflicts)
conflicts w/ dangerous DIP: 0              (0.00 % of conflicts)
conflicts w/ DIP-learning : 23109          (0.42 % of conflicts)
decisions on ext vars     : 1772           (0.03 % of decisions)
total ext vars            : 13495       
tried delete ext vars     : 12477       
deleted ext vars          : 12477       
max ext vars              : 1396        

Memory used               : 117.00 MB
CPU time                  : 3569.32 s
DIP computation time      : 171.121 s (4.79 % of total time)
ER_sel time               : 6.52707 s
ER_add time               : 0.048572 s
ER_delC time              : 0 s
ER_delV time              : 0.58112 s
ER_sub time               : 8.00047 s
ER_stat time              : 0 s

INDETERMINATE
